(set-logic ALL)
(declare-fun i1 () Int)
(declare-fun it523 () Int)
(declare-fun it524 () Int)
(declare-fun i2 () Int)
(declare-fun it525 () Int)
(declare-fun i3 () Int)
(declare-fun it526 () Int)
(declare-fun i4 () Int)
(declare-fun it527 () Int)
(declare-fun i5 () Int)
(declare-fun it528 () Int)
(declare-fun i6 () Int)
(declare-fun it529 () Int)
(declare-fun i7 () Int)
(declare-fun it731 () Int)
(declare-fun it732 () Int)
(declare-fun it733 () Int)
(declare-fun it734 () Int)
(declare-fun it735 () Int)
(declare-fun it736 () Int)
(declare-fun it737 () Int)
(declare-fun it152 () Int)
(assert (= (+ i1 (- 1)) 0))
(assert (= (+ it523 (- 2)) 0))
(assert (= (+ (* i2 (- 1)) it524 (- 1)) 0))
(assert (= (+ (* i3 (- 1)) it525) 0))
(assert (= (+ (* i4 (- 1)) it526) 0))
(assert (= (+ (* i5 (- 1)) it527) 0))
(assert (= (+ (* i6 (- 1)) it528) 0))
(assert (= (+ (* i7 (- 1)) it529) 0))
(assert (and (<= (+ (* it528 (- 1)) (- 5)) 0)
     (= (+ it523 (- 2)) 0)
     (> it525 0)
     (<= (+ it528 (- 5)) 0)))
(assert (= (+ it731 (- 3)) 0))
(assert (= (+ (* it524 (- 1)) it732 (- 2)) 0))
(assert (= (+ (* it525 (- 1)) it733) 0))
(assert (= (+ (* it525 (- 1)) it734) 0))
(assert (= (+ it735 (* it529 (- 1))) 0))
(assert (= (+ (* it528 (- 1)) it736) 0))
(assert (= (+ (* it529 (- 1)) it737) 0))
(assert (let ((a!1 (* (* (exp it736 3) (exp 9 (+ it152 (- 1)))) (+ 0 (- 1))))
      (a!2 (* (exp (exp 4 (+ it152 (- 1))) (+ 0 2)) (exp it734 2)))
      (a!4 (> (+ (* (exp it734 2) (+ 0 (- 4)))
                 (* (exp it736 5) (+ 0 (- 1)))
                 (+ 0 (* it735 3))
                 (* (exp it736 3) (+ 0 (- 2))))
              (+ 0 0)))
      (a!5 (* (* (exp it736 3) (exp 9 (+ it152 (- 1)))) (+ 0 (- 3))))
      (a!6 (* (* (+ 0 it735) (exp 9 (+ it152 (- 1)))) (+ 0 3)))
      (a!8 (> (+ (* (exp it734 2) (+ 0 (- 1)))
                 (* (exp it736 5) (+ 0 (- 1)))
                 (+ 0 it735))
              (+ 0 0))))
(let ((a!3 (+ a!1
              (* (exp it736 5) (+ 0 (- 1)))
              (* (+ 0 it735) (exp 9 (+ it152 (- 1))))
              (exp it736 3)
              (* a!2 (+ 0 (- 1)))))
      (a!7 (> (+ a!5
                 (* (exp it736 5) (+ 0 (- 1)))
                 a!6
                 (exp it736 3)
                 (* a!2 (+ 0 (- 4))))
              (+ 0 0))))
  (and (> a!3 (+ 0 0))
       (>= (+ it152 (- 1)) 0)
       a!4
       (>= (+ it731 (- 3)) 0)
       a!7
       a!8
       (>= (+ (* it731 (- 1)) 3) 0)
       (> (* it734 (- 1)) 0)
       (> (* it734 (- 2)) 0)))))
(check-sat)
